************************************************************************
file with basedata            : mm43_.bas
initial value random generator: 17320
************************************************************************
projects                      :  1
jobs (incl. supersource/sink ):  12
horizon                       :  77
RESOURCES
  - renewable                 :  2   R
  - nonrenewable              :  2   N
  - doubly constrained        :  0   D
************************************************************************
PROJECT INFORMATION:
pronr.  #jobs rel.date duedate tardcost  MPM-Time
    1     10      0       15        0       15
************************************************************************
PRECEDENCE RELATIONS:
jobnr.    #modes  #successors   successors
   0        1          3           1   2   3
   1        3          1           4
   2        3          2           7   9
   3        3          3           4   5   6
   4        3          2           8  10
   5        3          1           8
   6        3          2           7   9
   7        3          1           8
   8        3          1          11
   9        3          1          11
  10        3          1          11
  11        1          0        
************************************************************************
REQUESTS/DURATIONS:
jobnr. mode duration  R 1  R 2  R 3  R 4  E(W 1)  E(W 2)
------------------------------------------------------------------------
  0      1     0       0    0    0    0     0       0
  1      1     5       7    7    0    5    70      25
  2      1     3       2   10    0    6    36      18
  3      1     4       8    4    6    0    48      24
  4      1     8       4    9    8    0    104      64
  5      1     2       9    6   10    0    30      20
  6      1     2       3    5    3    0    16       6
  7      1     1       3    8    0    7    11       7
  8      1     1       6    8    0   10    14      10
  9      1     7       3    7    3    0    70      21
 10      1     2       2    6    4    0    16       8
 11      1     0       0    0    0    0     0       0
************************************************************************
RESOURCEAVAILABILITIES:
  R 1  R 2
   30   78
************************************************************************
RESOURCE LIMITS:
jobnr.  l(R 1)  u(R 1)  l(R 2)  u(R 2)
------------------------------------------------------------------------
  0        0       0       0       0
  1        8      14       3       5
  2        6      12       3       6
  3        6      12       3       6
  4        7      13       4       8
  5        8      15       5      10
  6        5       8       2       3
  7        6      11       4       7
  8        7      14       5      10
  9        6      10       2       3
 10        4       8       2       4
 11        0       0       0       0
************************************************************************
SCENARIOS:
------------------------------------------------------------------------
RESOURCE k = 1
s = 1: (0, 69, 34, 57, 85, 37, 11, 12, 9, 46, 18, 0)
s = 2: (0, 44, 33, 40, 104, 24, 15, 20, 19, 61, 16, 0)
s = 3: (0, 91, 59, 51, 142, 22, 27, 9, 15, 75, 17, 0)
s = 4: (0, 127, 32, 63, 59, 37, 20, 8, 18, 70, 16, 0)
s = 5: (0, 51, 43, 45, 139, 42, 17, 12, 11, 48, 16, 0)
s = 6: (0, 93, 22, 56, 124, 40, 19, 12, 19, 70, 20, 0)
s = 7: (0, 76, 31, 41, 60, 31, 13, 12, 20, 50, 15, 0)
s = 8: (0, 96, 47, 54, 107, 29, 19, 7, 17, 42, 20, 0)
s = 9: (0, 40, 64, 48, 166, 49, 16, 8, 10, 80, 18, 0)
s = 10: (0, 69, 35, 58, 147, 22, 19, 8, 18, 77, 13, 0)
s = 11: (0, 77, 38, 50, 100, 44, 18, 10, 19, 107, 12, 0)
s = 12: (0, 119, 54, 40, 71, 41, 17, 10, 20, 62, 17, 0)
s = 13: (0, 64, 45, 38, 80, 42, 15, 8, 11, 68, 11, 0)
s = 14: (0, 48, 23, 58, 161, 27, 11, 10, 10, 57, 13, 0)
s = 15: (0, 66, 29, 51, 134, 22, 16, 10, 16, 93, 11, 0)
s = 16: (0, 62, 43, 32, 91, 20, 12, 11, 14, 56, 12, 0)
s = 17: (0, 67, 22, 43, 184, 34, 25, 9, 13, 85, 12, 0)
s = 18: (0, 51, 31, 47, 121, 24, 18, 10, 15, 55, 26, 0)
s = 19: (0, 81, 43, 44, 72, 23, 23, 11, 19, 69, 19, 0)
s = 20: (0, 89, 24, 34, 67, 31, 12, 16, 21, 54, 15, 0)
s = 21: (0, 98, 21, 35, 78, 28, 19, 9, 10, 74, 16, 0)
s = 22: (0, 109, 45, 63, 66, 45, 19, 11, 12, 66, 9, 0)
s = 23: (0, 46, 41, 42, 91, 36, 28, 8, 11, 101, 10, 0)
s = 24: (0, 78, 31, 55, 80, 47, 16, 8, 18, 81, 20, 0)
s = 25: (0, 93, 31, 38, 172, 32, 17, 9, 16, 90, 16, 0)
s = 26: (0, 65, 34, 65, 142, 45, 19, 15, 13, 57, 14, 0)
s = 27: (0, 114, 61, 49, 86, 51, 16, 6, 16, 65, 18, 0)
s = 28: (0, 53, 33, 36, 115, 28, 25, 15, 11, 53, 19, 0)
s = 29: (0, 42, 52, 44, 135, 38, 22, 11, 16, 43, 16, 0)
s = 30: (0, 56, 42, 38, 83, 29, 15, 10, 12, 60, 11, 0)
s = 31: (0, 48, 50, 39, 140, 17, 14, 8, 12, 60, 19, 0)
s = 32: (0, 64, 31, 42, 148, 28, 17, 9, 16, 45, 15, 0)
s = 33: (0, 57, 34, 63, 151, 36, 10, 8, 19, 76, 23, 0)
s = 34: (0, 37, 51, 39, 104, 27, 12, 12, 10, 54, 11, 0)
s = 35: (0, 73, 31, 31, 93, 21, 13, 10, 12, 69, 20, 0)
s = 36: (0, 42, 26, 46, 101, 23, 11, 14, 10, 58, 15, 0)
s = 37: (0, 38, 34, 47, 90, 31, 18, 7, 12, 43, 12, 0)
s = 38: (0, 59, 52, 59, 77, 37, 12, 12, 11, 78, 17, 0)
s = 39: (0, 80, 30, 73, 60, 25, 19, 19, 13, 56, 11, 0)
s = 40: (0, 100, 21, 52, 109, 37, 18, 7, 22, 94, 14, 0)
s = 41: (0, 79, 32, 46, 100, 20, 16, 10, 13, 59, 16, 0)
s = 42: (0, 58, 40, 33, 81, 36, 17, 12, 15, 51, 16, 0)
s = 43: (0, 98, 27, 50, 119, 53, 16, 21, 13, 64, 17, 0)
s = 44: (0, 72, 36, 59, 137, 40, 13, 14, 23, 43, 14, 0)
s = 45: (0, 62, 32, 69, 92, 37, 16, 8, 9, 66, 21, 0)
s = 46: (0, 82, 28, 50, 79, 25, 19, 8, 11, 62, 13, 0)
s = 47: (0, 124, 19, 30, 113, 37, 25, 7, 23, 60, 21, 0)
s = 48: (0, 86, 49, 34, 113, 26, 17, 11, 14, 123, 19, 0)
s = 49: (0, 56, 57, 54, 90, 41, 16, 11, 12, 93, 13, 0)
s = 50: (0, 67, 44, 43, 101, 24, 20, 8, 9, 43, 10, 0)
s = 51: (0, 105, 31, 26, 109, 58, 23, 13, 19, 56, 22, 0)
s = 52: (0, 48, 29, 69, 136, 43, 14, 14, 11, 38, 10, 0)
s = 53: (0, 90, 47, 51, 191, 53, 18, 9, 14, 65, 19, 0)
s = 54: (0, 53, 45, 54, 80, 21, 18, 11, 13, 68, 16, 0)
s = 55: (0, 85, 67, 52, 159, 23, 18, 7, 19, 62, 19, 0)
s = 56: (0, 84, 60, 39, 83, 34, 15, 13, 12, 85, 16, 0)
s = 57: (0, 81, 49, 38, 74, 39, 13, 9, 17, 76, 28, 0)
s = 58: (0, 57, 31, 66, 72, 41, 20, 11, 12, 80, 9, 0)
s = 59: (0, 73, 29, 41, 114, 23, 13, 13, 19, 46, 22, 0)
s = 60: (0, 61, 32, 28, 75, 35, 10, 7, 19, 49, 11, 0)
s = 61: (0, 70, 33, 60, 119, 43, 18, 10, 12, 79, 11, 0)
s = 62: (0, 80, 54, 58, 101, 41, 24, 19, 17, 82, 17, 0)
s = 63: (0, 84, 46, 40, 82, 35, 16, 11, 11, 72, 11, 0)
s = 64: (0, 60, 43, 50, 191, 46, 11, 13, 11, 71, 24, 0)
s = 65: (0, 90, 26, 35, 126, 28, 15, 16, 10, 72, 10, 0)
s = 66: (0, 68, 32, 35, 104, 38, 23, 11, 14, 44, 12, 0)
s = 67: (0, 40, 43, 50, 88, 27, 14, 6, 16, 44, 13, 0)
s = 68: (0, 80, 35, 63, 167, 35, 16, 12, 15, 60, 17, 0)
s = 69: (0, 90, 39, 28, 108, 24, 14, 12, 9, 46, 16, 0)
s = 70: (0, 60, 28, 52, 95, 23, 17, 13, 15, 59, 23, 0)
s = 71: (0, 63, 22, 49, 61, 23, 11, 10, 13, 55, 15, 0)
s = 72: (0, 78, 50, 60, 153, 21, 12, 16, 14, 50, 11, 0)
s = 73: (0, 72, 35, 56, 154, 30, 16, 12, 14, 55, 19, 0)
s = 74: (0, 61, 25, 65, 119, 47, 13, 10, 27, 118, 18, 0)
s = 75: (0, 42, 53, 64, 95, 23, 27, 13, 12, 40, 19, 0)
s = 76: (0, 49, 23, 41, 121, 35, 10, 8, 15, 68, 27, 0)
s = 77: (0, 80, 22, 57, 80, 25, 11, 13, 18, 91, 17, 0)
s = 78: (0, 51, 29, 33, 67, 27, 16, 7, 11, 44, 14, 0)
s = 79: (0, 101, 28, 45, 208, 30, 14, 8, 11, 56, 18, 0)
s = 80: (0, 125, 49, 36, 90, 31, 12, 6, 12, 54, 16, 0)
s = 81: (0, 102, 47, 57, 121, 29, 24, 16, 16, 79, 11, 0)
s = 82: (0, 106, 54, 37, 85, 34, 11, 15, 14, 69, 9, 0)
s = 83: (0, 89, 30, 57, 87, 24, 19, 10, 16, 92, 15, 0)
s = 84: (0, 57, 32, 40, 98, 52, 14, 9, 14, 52, 11, 0)
s = 85: (0, 51, 31, 39, 111, 21, 21, 9, 11, 77, 24, 0)
s = 86: (0, 48, 42, 50, 103, 32, 14, 13, 11, 80, 19, 0)
s = 87: (0, 64, 40, 37, 86, 42, 20, 13, 8, 81, 12, 0)
s = 88: (0, 59, 47, 38, 71, 26, 13, 11, 18, 60, 13, 0)
s = 89: (0, 63, 34, 61, 92, 27, 16, 10, 14, 104, 17, 0)
s = 90: (0, 60, 37, 58, 102, 26, 17, 8, 22, 50, 20, 0)
s = 91: (0, 59, 30, 53, 161, 28, 28, 10, 13, 42, 12, 0)
s = 92: (0, 48, 31, 65, 124, 26, 11, 12, 21, 55, 18, 0)
s = 93: (0, 92, 55, 44, 76, 28, 13, 8, 10, 79, 11, 0)
s = 94: (0, 56, 24, 42, 78, 39, 19, 20, 17, 79, 16, 0)
s = 95: (0, 62, 29, 48, 104, 38, 14, 16, 14, 72, 18, 0)
s = 96: (0, 91, 33, 34, 131, 35, 27, 9, 23, 66, 19, 0)
s = 97: (0, 69, 44, 36, 75, 29, 24, 17, 18, 46, 23, 0)
s = 98: (0, 74, 34, 41, 150, 27, 15, 17, 15, 81, 11, 0)
s = 99: (0, 47, 19, 31, 103, 20, 17, 18, 15, 102, 13, 0)
s = 100: (0, 71, 37, 37, 111, 22, 25, 13, 17, 72, 16, 0)
s = 101: (0, 62, 45, 34, 100, 46, 25, 8, 12, 50, 15, 0)
s = 102: (0, 40, 43, 33, 86, 27, 10, 13, 15, 44, 9, 0)
s = 103: (0, 43, 36, 33, 73, 18, 22, 8, 8, 86, 21, 0)
s = 104: (0, 62, 32, 63, 83, 37, 16, 13, 19, 82, 16, 0)
s = 105: (0, 57, 33, 54, 96, 52, 15, 11, 15, 92, 13, 0)
s = 106: (0, 61, 36, 62, 86, 29, 11, 13, 18, 57, 12, 0)
s = 107: (0, 66, 35, 37, 141, 31, 24, 14, 19, 89, 23, 0)
s = 108: (0, 59, 47, 35, 78, 45, 14, 11, 18, 65, 23, 0)
s = 109: (0, 62, 29, 35, 127, 28, 13, 7, 11, 49, 11, 0)
s = 110: (0, 70, 30, 49, 111, 27, 14, 11, 16, 91, 14, 0)
s = 111: (0, 80, 34, 44, 103, 23, 27, 8, 10, 90, 19, 0)
s = 112: (0, 68, 37, 38, 87, 33, 14, 20, 13, 64, 12, 0)
s = 113: (0, 104, 36, 39, 69, 23, 23, 16, 18, 86, 16, 0)
s = 114: (0, 66, 29, 66, 85, 55, 17, 13, 19, 57, 16, 0)
s = 115: (0, 107, 54, 43, 92, 42, 16, 13, 10, 66, 15, 0)
s = 116: (0, 51, 26, 54, 80, 27, 21, 17, 12, 52, 23, 0)
s = 117: (0, 102, 49, 42, 105, 45, 10, 15, 12, 75, 10, 0)
s = 118: (0, 75, 47, 56, 85, 29, 12, 8, 17, 66, 19, 0)
s = 119: (0, 87, 26, 61, 121, 24, 19, 11, 14, 40, 11, 0)
s = 120: (0, 43, 34, 43, 143, 23, 18, 15, 21, 97, 14, 0)
s = 121: (0, 53, 29, 74, 141, 34, 19, 13, 12, 87, 13, 0)
s = 122: (0, 66, 47, 59, 124, 34, 21, 12, 15, 71, 18, 0)
s = 123: (0, 40, 38, 75, 94, 22, 11, 11, 15, 60, 17, 0)
s = 124: (0, 95, 47, 39, 126, 34, 22, 12, 13, 94, 26, 0)
s = 125: (0, 76, 25, 61, 154, 36, 20, 14, 15, 97, 14, 0)
s = 126: (0, 72, 26, 66, 100, 39, 19, 11, 18, 54, 17, 0)
s = 127: (0, 67, 35, 79, 102, 24, 20, 14, 12, 64, 22, 0)
s = 128: (0, 66, 59, 34, 126, 23, 11, 16, 13, 78, 15, 0)
s = 129: (0, 66, 31, 41, 104, 40, 14, 9, 18, 50, 13, 0)
s = 130: (0, 56, 30, 44, 114, 36, 19, 12, 12, 44, 22, 0)
s = 131: (0, 64, 27, 43, 90, 42, 18, 15, 10, 82, 12, 0)
s = 132: (0, 92, 33, 47, 154, 25, 13, 11, 12, 61, 10, 0)
s = 133: (0, 95, 29, 48, 64, 21, 13, 10, 13, 56, 16, 0)
s = 134: (0, 64, 52, 66, 143, 24, 21, 11, 9, 91, 22, 0)
s = 135: (0, 88, 24, 38, 107, 25, 19, 10, 15, 55, 17, 0)
s = 136: (0, 48, 27, 31, 131, 32, 21, 13, 12, 94, 16, 0)
s = 137: (0, 61, 30, 38, 61, 19, 19, 13, 17, 112, 21, 0)
s = 138: (0, 37, 41, 52, 125, 56, 19, 7, 16, 126, 14, 0)
s = 139: (0, 62, 32, 31, 174, 37, 22, 8, 12, 61, 12, 0)
s = 140: (0, 45, 38, 32, 98, 35, 27, 8, 11, 96, 22, 0)
s = 141: (0, 100, 34, 69, 66, 43, 11, 10, 13, 54, 13, 0)
s = 142: (0, 47, 35, 49, 80, 34, 18, 9, 15, 60, 10, 0)
s = 143: (0, 78, 39, 58, 96, 36, 14, 10, 17, 90, 19, 0)
s = 144: (0, 68, 25, 33, 67, 42, 13, 13, 15, 42, 11, 0)
s = 145: (0, 81, 29, 54, 150, 40, 14, 11, 9, 110, 9, 0)
s = 146: (0, 72, 49, 32, 126, 23, 18, 14, 15, 67, 30, 0)
s = 147: (0, 58, 33, 38, 79, 19, 14, 11, 9, 62, 12, 0)
s = 148: (0, 56, 44, 56, 111, 29, 22, 9, 19, 90, 14, 0)
s = 149: (0, 43, 52, 63, 75, 35, 11, 10, 14, 43, 18, 0)
s = 150: (0, 41, 32, 37, 107, 41, 16, 10, 9, 44, 11, 0)
s = 151: (0, 60, 40, 54, 97, 28, 20, 14, 22, 68, 17, 0)
s = 152: (0, 62, 51, 63, 90, 29, 12, 11, 20, 50, 27, 0)
s = 153: (0, 65, 40, 65, 116, 24, 24, 11, 20, 52, 18, 0)
s = 154: (0, 74, 27, 67, 175, 23, 27, 9, 18, 92, 18, 0)
s = 155: (0, 74, 43, 60, 98, 22, 17, 11, 15, 45, 14, 0)
s = 156: (0, 61, 31, 48, 145, 22, 14, 10, 13, 81, 13, 0)
s = 157: (0, 39, 28, 55, 95, 33, 11, 11, 9, 102, 15, 0)
s = 158: (0, 48, 47, 28, 70, 21, 18, 9, 14, 94, 11, 0)
s = 159: (0, 41, 36, 58, 76, 50, 22, 9, 14, 88, 17, 0)
s = 160: (0, 79, 33, 38, 108, 38, 20, 16, 18, 61, 22, 0)
s = 161: (0, 68, 44, 43, 115, 36, 16, 11, 17, 57, 15, 0)
s = 162: (0, 74, 53, 55, 87, 33, 11, 17, 18, 80, 14, 0)
s = 163: (0, 61, 62, 39, 67, 20, 14, 15, 15, 88, 13, 0)
s = 164: (0, 95, 41, 46, 100, 36, 16, 10, 21, 46, 11, 0)
s = 165: (0, 48, 30, 63, 65, 42, 11, 13, 15, 62, 10, 0)
s = 166: (0, 51, 31, 43, 127, 39, 16, 10, 10, 91, 10, 0)
s = 167: (0, 60, 49, 45, 95, 26, 20, 20, 10, 64, 20, 0)
s = 168: (0, 94, 39, 37, 64, 27, 14, 13, 17, 78, 13, 0)
s = 169: (0, 84, 42, 42, 140, 26, 21, 12, 14, 71, 12, 0)
s = 170: (0, 96, 22, 60, 112, 36, 13, 18, 23, 40, 19, 0)
s = 171: (0, 103, 62, 40, 138, 41, 17, 10, 20, 84, 17, 0)
s = 172: (0, 58, 25, 48, 188, 31, 22, 10, 19, 74, 13, 0)
s = 173: (0, 61, 37, 33, 127, 21, 11, 11, 15, 59, 11, 0)
s = 174: (0, 53, 28, 41, 102, 25, 16, 10, 13, 78, 11, 0)
s = 175: (0, 83, 51, 70, 92, 29, 10, 10, 16, 51, 25, 0)
s = 176: (0, 81, 58, 54, 127, 21, 24, 10, 9, 108, 16, 0)
s = 177: (0, 77, 46, 63, 62, 33, 22, 9, 13, 84, 12, 0)
s = 178: (0, 42, 25, 58, 99, 47, 17, 14, 15, 66, 11, 0)
s = 179: (0, 63, 20, 34, 133, 32, 14, 12, 18, 47, 10, 0)
s = 180: (0, 74, 26, 48, 107, 38, 22, 17, 12, 95, 15, 0)
s = 181: (0, 70, 26, 65, 126, 32, 24, 7, 14, 84, 11, 0)
s = 182: (0, 61, 33, 55, 136, 19, 12, 13, 18, 81, 13, 0)
s = 183: (0, 49, 23, 73, 127, 35, 29, 12, 11, 57, 15, 0)
s = 184: (0, 52, 43, 51, 72, 24, 18, 19, 18, 91, 12, 0)
s = 185: (0, 48, 31, 64, 110, 27, 14, 10, 13, 53, 10, 0)
s = 186: (0, 85, 33, 51, 93, 18, 17, 11, 21, 78, 20, 0)
s = 187: (0, 81, 27, 34, 68, 37, 24, 8, 13, 70, 9, 0)
s = 188: (0, 65, 22, 51, 74, 30, 11, 9, 13, 57, 22, 0)
s = 189: (0, 54, 22, 59, 74, 32, 11, 12, 15, 80, 21, 0)
s = 190: (0, 68, 40, 38, 93, 31, 17, 15, 19, 53, 15, 0)
s = 191: (0, 59, 30, 58, 111, 38, 22, 8, 23, 113, 11, 0)
s = 192: (0, 56, 33, 35, 83, 36, 22, 13, 16, 75, 17, 0)
s = 193: (0, 74, 29, 31, 98, 33, 21, 11, 9, 72, 14, 0)
s = 194: (0, 57, 26, 28, 192, 25, 22, 11, 11, 104, 12, 0)
s = 195: (0, 66, 32, 41, 128, 28, 15, 19, 15, 67, 12, 0)
s = 196: (0, 98, 45, 66, 87, 42, 15, 11, 16, 98, 19, 0)
s = 197: (0, 64, 41, 64, 97, 26, 15, 13, 13, 42, 16, 0)
s = 198: (0, 63, 32, 33, 110, 23, 12, 9, 15, 84, 12, 0)
s = 199: (0, 99, 36, 31, 161, 23, 16, 15, 15, 73, 11, 0)
s = 200: (0, 69, 30, 48, 79, 21, 19, 17, 11, 93, 22, 0)
------------------------------------------------------------------------
RESOURCE k = 2
s = 1: (0, 25, 17, 29, 53, 25, 4, 8, 7, 14, 9, 0)
s = 2: (0, 16, 17, 20, 64, 16, 6, 13, 13, 19, 8, 0)
s = 3: (0, 33, 30, 26, 87, 15, 10, 6, 11, 23, 9, 0)
s = 4: (0, 46, 16, 32, 37, 25, 8, 5, 13, 21, 8, 0)
s = 5: (0, 19, 22, 23, 86, 28, 7, 8, 8, 15, 8, 0)
s = 6: (0, 34, 11, 28, 77, 27, 7, 8, 14, 21, 10, 0)
s = 7: (0, 28, 16, 21, 37, 21, 5, 8, 15, 15, 8, 0)
s = 8: (0, 35, 24, 27, 66, 19, 8, 5, 12, 13, 10, 0)
s = 9: (0, 15, 32, 24, 102, 33, 6, 5, 8, 24, 9, 0)
s = 10: (0, 25, 18, 29, 90, 15, 7, 5, 13, 23, 7, 0)
s = 11: (0, 28, 19, 25, 62, 29, 7, 7, 14, 32, 6, 0)
s = 12: (0, 43, 27, 20, 44, 27, 7, 6, 15, 19, 9, 0)
s = 13: (0, 23, 23, 19, 49, 28, 6, 6, 8, 21, 6, 0)
s = 14: (0, 18, 12, 29, 100, 18, 5, 6, 7, 18, 7, 0)
s = 15: (0, 24, 15, 26, 82, 15, 6, 6, 12, 28, 6, 0)
s = 16: (0, 22, 22, 16, 56, 14, 5, 7, 10, 17, 6, 0)
s = 17: (0, 24, 11, 22, 114, 23, 10, 6, 9, 26, 6, 0)
s = 18: (0, 19, 16, 24, 75, 16, 7, 6, 11, 17, 13, 0)
s = 19: (0, 29, 22, 22, 44, 15, 9, 7, 14, 21, 10, 0)
s = 20: (0, 32, 12, 17, 42, 21, 5, 11, 15, 16, 8, 0)
s = 21: (0, 35, 11, 18, 48, 19, 7, 6, 8, 22, 8, 0)
s = 22: (0, 39, 23, 32, 41, 30, 8, 7, 9, 20, 5, 0)
s = 23: (0, 17, 21, 21, 56, 24, 11, 5, 8, 31, 5, 0)
s = 24: (0, 28, 16, 28, 50, 31, 6, 5, 13, 25, 10, 0)
s = 25: (0, 33, 16, 19, 106, 21, 7, 6, 12, 27, 8, 0)
s = 26: (0, 24, 17, 33, 88, 30, 8, 10, 9, 17, 7, 0)
s = 27: (0, 41, 31, 25, 53, 34, 6, 4, 11, 20, 9, 0)
s = 28: (0, 19, 17, 18, 71, 19, 10, 10, 8, 16, 10, 0)
s = 29: (0, 15, 26, 22, 83, 25, 9, 7, 11, 13, 8, 0)
s = 30: (0, 20, 21, 19, 51, 20, 6, 7, 9, 18, 6, 0)
s = 31: (0, 18, 25, 20, 86, 12, 6, 5, 9, 18, 10, 0)
s = 32: (0, 23, 16, 21, 91, 19, 7, 6, 12, 14, 8, 0)
s = 33: (0, 21, 17, 32, 93, 24, 4, 5, 14, 23, 12, 0)
s = 34: (0, 14, 26, 20, 64, 18, 5, 8, 7, 17, 6, 0)
s = 35: (0, 26, 16, 16, 57, 14, 5, 6, 9, 21, 10, 0)
s = 36: (0, 15, 13, 23, 63, 15, 4, 9, 7, 18, 8, 0)
s = 37: (0, 14, 17, 24, 56, 21, 7, 5, 9, 13, 6, 0)
s = 38: (0, 21, 26, 30, 47, 25, 5, 8, 8, 24, 9, 0)
s = 39: (0, 29, 15, 37, 37, 17, 7, 12, 10, 17, 6, 0)
s = 40: (0, 36, 11, 26, 67, 25, 7, 5, 16, 28, 7, 0)
s = 41: (0, 28, 16, 23, 62, 13, 6, 7, 10, 18, 8, 0)
s = 42: (0, 21, 20, 17, 50, 24, 7, 8, 11, 16, 8, 0)
s = 43: (0, 35, 14, 25, 73, 35, 6, 14, 10, 20, 9, 0)
s = 44: (0, 26, 18, 30, 84, 27, 5, 9, 17, 13, 7, 0)
s = 45: (0, 23, 16, 35, 57, 25, 6, 5, 6, 20, 11, 0)
s = 46: (0, 30, 14, 25, 49, 17, 8, 5, 8, 19, 7, 0)
s = 47: (0, 45, 10, 15, 70, 25, 10, 5, 17, 18, 11, 0)
s = 48: (0, 31, 25, 17, 70, 17, 7, 7, 10, 37, 10, 0)
s = 49: (0, 20, 29, 27, 56, 28, 6, 7, 9, 28, 7, 0)
s = 50: (0, 24, 22, 22, 62, 16, 8, 5, 7, 13, 5, 0)
s = 51: (0, 38, 16, 13, 67, 39, 9, 8, 14, 17, 11, 0)
s = 52: (0, 17, 15, 35, 84, 29, 6, 9, 8, 12, 5, 0)
s = 53: (0, 32, 24, 26, 118, 35, 7, 6, 10, 20, 10, 0)
s = 54: (0, 19, 23, 27, 50, 14, 7, 7, 9, 21, 8, 0)
s = 55: (0, 31, 34, 26, 98, 15, 7, 5, 14, 19, 10, 0)
s = 56: (0, 30, 30, 20, 51, 23, 6, 8, 9, 26, 8, 0)
s = 57: (0, 29, 25, 19, 46, 26, 5, 6, 12, 23, 14, 0)
s = 58: (0, 21, 16, 33, 45, 27, 8, 7, 9, 24, 5, 0)
s = 59: (0, 26, 15, 21, 70, 15, 5, 9, 14, 14, 11, 0)
s = 60: (0, 22, 16, 14, 46, 24, 4, 5, 14, 15, 6, 0)
s = 61: (0, 25, 17, 30, 74, 29, 7, 6, 9, 24, 6, 0)
s = 62: (0, 29, 27, 29, 63, 27, 9, 12, 12, 25, 9, 0)
s = 63: (0, 30, 23, 20, 51, 24, 6, 7, 8, 22, 6, 0)
s = 64: (0, 22, 22, 25, 118, 31, 5, 8, 8, 22, 12, 0)
s = 65: (0, 33, 13, 18, 78, 19, 6, 10, 8, 22, 5, 0)
s = 66: (0, 25, 16, 18, 64, 25, 9, 7, 10, 13, 6, 0)
s = 67: (0, 15, 22, 25, 55, 18, 6, 4, 12, 13, 7, 0)
s = 68: (0, 29, 18, 32, 103, 24, 6, 8, 11, 18, 9, 0)
s = 69: (0, 33, 20, 14, 67, 16, 5, 8, 7, 14, 8, 0)
s = 70: (0, 22, 14, 26, 59, 16, 7, 8, 11, 18, 12, 0)
s = 71: (0, 23, 11, 25, 38, 16, 4, 7, 9, 17, 8, 0)
s = 72: (0, 28, 25, 30, 94, 14, 5, 11, 10, 15, 6, 0)
s = 73: (0, 26, 18, 28, 95, 20, 6, 8, 10, 17, 10, 0)
s = 74: (0, 22, 13, 33, 73, 31, 5, 7, 19, 36, 9, 0)
s = 75: (0, 15, 27, 32, 59, 16, 11, 9, 8, 12, 10, 0)
s = 76: (0, 18, 12, 21, 75, 24, 4, 5, 11, 21, 14, 0)
s = 77: (0, 29, 11, 29, 49, 17, 4, 8, 13, 28, 9, 0)
s = 78: (0, 18, 15, 17, 42, 18, 6, 4, 8, 13, 7, 0)
s = 79: (0, 36, 14, 23, 128, 20, 6, 6, 8, 17, 9, 0)
s = 80: (0, 45, 25, 18, 55, 21, 5, 4, 9, 17, 8, 0)
s = 81: (0, 37, 24, 29, 75, 19, 9, 11, 11, 24, 6, 0)
s = 82: (0, 38, 27, 19, 52, 23, 5, 10, 10, 21, 5, 0)
s = 83: (0, 32, 15, 29, 54, 16, 7, 7, 11, 28, 8, 0)
s = 84: (0, 21, 16, 20, 60, 35, 5, 6, 10, 16, 6, 0)
s = 85: (0, 18, 16, 20, 69, 14, 8, 6, 8, 24, 12, 0)
s = 86: (0, 17, 21, 25, 63, 21, 6, 8, 8, 24, 10, 0)
s = 87: (0, 23, 20, 19, 53, 28, 8, 8, 6, 25, 6, 0)
s = 88: (0, 21, 24, 19, 44, 17, 5, 7, 13, 18, 7, 0)
s = 89: (0, 23, 17, 31, 57, 18, 6, 6, 10, 32, 9, 0)
s = 90: (0, 22, 19, 29, 63, 18, 7, 5, 16, 15, 10, 0)
s = 91: (0, 21, 15, 27, 99, 19, 11, 7, 9, 13, 6, 0)
s = 92: (0, 18, 16, 33, 77, 18, 5, 8, 15, 17, 9, 0)
s = 93: (0, 33, 28, 22, 47, 19, 5, 5, 7, 24, 6, 0)
s = 94: (0, 20, 12, 21, 48, 26, 8, 13, 12, 24, 8, 0)
s = 95: (0, 22, 15, 24, 64, 26, 6, 10, 10, 22, 9, 0)
s = 96: (0, 33, 17, 17, 81, 23, 11, 6, 16, 20, 10, 0)
s = 97: (0, 25, 22, 18, 46, 20, 9, 11, 13, 14, 12, 0)
s = 98: (0, 27, 17, 21, 92, 18, 6, 11, 11, 25, 6, 0)
s = 99: (0, 17, 10, 16, 64, 14, 7, 12, 11, 31, 7, 0)
s = 100: (0, 26, 19, 19, 68, 15, 10, 9, 12, 22, 8, 0)
s = 101: (0, 23, 23, 17, 62, 31, 10, 5, 9, 15, 8, 0)
s = 102: (0, 15, 22, 17, 53, 18, 4, 8, 11, 14, 5, 0)
s = 103: (0, 16, 18, 17, 45, 12, 9, 5, 6, 26, 11, 0)
s = 104: (0, 23, 16, 32, 51, 25, 6, 9, 14, 25, 8, 0)
s = 105: (0, 21, 17, 27, 59, 35, 6, 7, 11, 28, 7, 0)
s = 106: (0, 22, 18, 31, 53, 20, 4, 8, 13, 17, 6, 0)
s = 107: (0, 24, 18, 19, 87, 21, 9, 9, 14, 27, 12, 0)
s = 108: (0, 21, 24, 18, 48, 30, 6, 7, 13, 20, 12, 0)
s = 109: (0, 23, 15, 18, 78, 19, 5, 5, 8, 15, 6, 0)
s = 110: (0, 25, 15, 25, 69, 18, 6, 7, 12, 28, 7, 0)
s = 111: (0, 29, 17, 22, 63, 16, 11, 5, 7, 27, 10, 0)
s = 112: (0, 25, 19, 19, 54, 22, 6, 13, 10, 20, 6, 0)
s = 113: (0, 37, 18, 20, 43, 15, 9, 10, 13, 26, 8, 0)
s = 114: (0, 24, 15, 33, 53, 37, 7, 9, 14, 17, 8, 0)
s = 115: (0, 39, 27, 22, 57, 28, 6, 8, 7, 20, 8, 0)
s = 116: (0, 18, 13, 27, 50, 18, 8, 11, 9, 16, 12, 0)
s = 117: (0, 37, 25, 21, 65, 30, 4, 10, 9, 23, 5, 0)
s = 118: (0, 27, 24, 28, 52, 19, 5, 5, 13, 20, 10, 0)
s = 119: (0, 31, 13, 31, 74, 16, 7, 7, 10, 12, 6, 0)
s = 120: (0, 16, 17, 22, 88, 15, 7, 10, 15, 30, 7, 0)
s = 121: (0, 19, 15, 37, 87, 23, 8, 8, 9, 27, 7, 0)
s = 122: (0, 24, 24, 30, 76, 23, 8, 8, 11, 22, 9, 0)
s = 123: (0, 15, 19, 38, 58, 15, 4, 7, 11, 18, 9, 0)
s = 124: (0, 34, 24, 20, 77, 23, 9, 8, 10, 28, 13, 0)
s = 125: (0, 27, 13, 31, 95, 24, 8, 9, 11, 30, 7, 0)
s = 126: (0, 26, 13, 33, 62, 26, 7, 7, 13, 17, 9, 0)
s = 127: (0, 24, 18, 40, 63, 16, 8, 9, 9, 20, 11, 0)
s = 128: (0, 24, 30, 17, 78, 16, 4, 10, 9, 24, 8, 0)
s = 129: (0, 24, 16, 21, 64, 27, 6, 6, 13, 15, 7, 0)
s = 130: (0, 20, 15, 22, 70, 24, 8, 8, 9, 14, 11, 0)
s = 131: (0, 23, 14, 22, 55, 28, 7, 10, 7, 25, 6, 0)
s = 132: (0, 33, 17, 24, 95, 17, 5, 7, 9, 19, 5, 0)
s = 133: (0, 34, 15, 24, 39, 14, 5, 6, 10, 17, 8, 0)
s = 134: (0, 23, 26, 33, 88, 16, 8, 7, 6, 28, 11, 0)
s = 135: (0, 32, 12, 19, 66, 17, 8, 7, 11, 17, 9, 0)
s = 136: (0, 18, 14, 16, 81, 22, 8, 8, 9, 29, 8, 0)
s = 137: (0, 22, 15, 19, 38, 13, 7, 8, 13, 34, 11, 0)
s = 138: (0, 13, 21, 26, 77, 38, 7, 4, 12, 38, 7, 0)
s = 139: (0, 23, 16, 16, 107, 25, 9, 6, 9, 19, 6, 0)
s = 140: (0, 16, 19, 16, 60, 23, 11, 5, 8, 29, 11, 0)
s = 141: (0, 36, 17, 35, 41, 29, 4, 6, 10, 17, 7, 0)
s = 142: (0, 17, 18, 25, 49, 23, 7, 6, 11, 18, 5, 0)
s = 143: (0, 28, 20, 29, 59, 24, 5, 7, 12, 27, 10, 0)
s = 144: (0, 25, 13, 17, 42, 28, 5, 9, 11, 13, 6, 0)
s = 145: (0, 29, 15, 27, 92, 27, 5, 7, 6, 33, 5, 0)
s = 146: (0, 26, 25, 16, 78, 16, 7, 9, 11, 20, 15, 0)
s = 147: (0, 21, 17, 19, 49, 13, 5, 7, 6, 19, 6, 0)
s = 148: (0, 20, 22, 28, 68, 20, 9, 6, 14, 27, 7, 0)
s = 149: (0, 16, 26, 32, 47, 23, 4, 6, 10, 13, 9, 0)
s = 150: (0, 15, 16, 19, 66, 28, 6, 6, 7, 14, 6, 0)
s = 151: (0, 22, 20, 27, 60, 19, 8, 9, 16, 21, 9, 0)
s = 152: (0, 22, 26, 32, 56, 20, 5, 7, 15, 15, 14, 0)
s = 153: (0, 24, 20, 33, 72, 16, 9, 7, 14, 16, 9, 0)
s = 154: (0, 27, 14, 34, 108, 16, 10, 6, 13, 28, 9, 0)
s = 155: (0, 27, 22, 30, 60, 15, 7, 7, 11, 14, 7, 0)
s = 156: (0, 22, 16, 24, 89, 15, 6, 7, 10, 25, 7, 0)
s = 157: (0, 14, 14, 28, 59, 22, 5, 7, 6, 31, 8, 0)
s = 158: (0, 17, 24, 14, 43, 14, 7, 6, 10, 29, 6, 0)
s = 159: (0, 15, 18, 29, 47, 33, 8, 6, 10, 27, 9, 0)
s = 160: (0, 28, 17, 19, 67, 25, 8, 11, 13, 19, 11, 0)
s = 161: (0, 25, 22, 22, 71, 24, 6, 7, 13, 17, 8, 0)
s = 162: (0, 27, 27, 28, 54, 22, 5, 11, 13, 24, 7, 0)
s = 163: (0, 22, 31, 20, 41, 13, 6, 10, 11, 27, 7, 0)
s = 164: (0, 34, 21, 23, 62, 24, 6, 7, 15, 14, 6, 0)
s = 165: (0, 17, 15, 32, 40, 28, 4, 8, 11, 19, 5, 0)
s = 166: (0, 18, 16, 22, 78, 26, 6, 7, 7, 28, 5, 0)
s = 167: (0, 22, 25, 23, 59, 18, 8, 13, 7, 19, 10, 0)
s = 168: (0, 34, 20, 19, 40, 18, 6, 8, 12, 24, 7, 0)
s = 169: (0, 30, 21, 21, 86, 17, 8, 8, 10, 22, 6, 0)
s = 170: (0, 34, 11, 30, 69, 24, 5, 12, 17, 12, 10, 0)
s = 171: (0, 37, 31, 20, 85, 28, 7, 6, 14, 25, 9, 0)
s = 172: (0, 21, 13, 24, 116, 21, 8, 6, 14, 22, 7, 0)
s = 173: (0, 22, 19, 17, 78, 14, 4, 7, 11, 18, 6, 0)
s = 174: (0, 19, 14, 21, 63, 17, 6, 7, 9, 24, 6, 0)
s = 175: (0, 30, 26, 35, 57, 19, 4, 7, 12, 16, 13, 0)
s = 176: (0, 29, 29, 27, 78, 14, 9, 7, 7, 33, 8, 0)
s = 177: (0, 28, 23, 32, 38, 22, 9, 6, 9, 26, 6, 0)
s = 178: (0, 15, 13, 29, 61, 32, 7, 9, 11, 20, 6, 0)
s = 179: (0, 23, 10, 17, 82, 22, 5, 8, 13, 14, 5, 0)
s = 180: (0, 27, 13, 24, 66, 25, 8, 11, 9, 29, 8, 0)
s = 181: (0, 25, 13, 33, 78, 21, 9, 5, 10, 25, 6, 0)
s = 182: (0, 22, 17, 28, 84, 13, 5, 8, 13, 25, 7, 0)
s = 183: (0, 18, 12, 37, 78, 23, 11, 8, 8, 17, 8, 0)
s = 184: (0, 19, 22, 26, 45, 16, 7, 12, 13, 28, 6, 0)
s = 185: (0, 18, 16, 32, 68, 18, 6, 6, 9, 16, 5, 0)
s = 186: (0, 31, 17, 26, 57, 12, 7, 7, 15, 24, 10, 0)
s = 187: (0, 29, 14, 17, 42, 25, 9, 5, 9, 21, 5, 0)
s = 188: (0, 24, 11, 26, 46, 20, 4, 6, 9, 17, 11, 0)
s = 189: (0, 20, 11, 30, 45, 21, 5, 8, 11, 24, 11, 0)
s = 190: (0, 25, 20, 19, 58, 21, 7, 9, 13, 16, 8, 0)
s = 191: (0, 21, 15, 29, 69, 25, 9, 5, 17, 34, 6, 0)
s = 192: (0, 20, 17, 18, 52, 24, 9, 8, 12, 23, 9, 0)
s = 193: (0, 27, 15, 16, 60, 22, 8, 7, 7, 22, 7, 0)
s = 194: (0, 21, 13, 14, 119, 17, 9, 7, 8, 32, 6, 0)
s = 195: (0, 24, 16, 21, 79, 19, 6, 13, 11, 20, 6, 0)
s = 196: (0, 35, 23, 33, 54, 28, 6, 7, 11, 30, 10, 0)
s = 197: (0, 23, 21, 32, 60, 18, 6, 9, 9, 13, 8, 0)
s = 198: (0, 23, 16, 17, 68, 15, 5, 6, 11, 25, 6, 0)
s = 199: (0, 36, 18, 16, 99, 16, 6, 9, 11, 22, 6, 0)
s = 200: (0, 25, 15, 24, 49, 14, 7, 11, 8, 28, 11, 0)
************************************************************************
ES/LS-VALUES:
jobnr.   ES(i)    LS(i)
------------------------------------------------------------------------
  0        0        0
  1        0       47
  2        0       58
  3        0       50
  4        9       57
  5        6       71
  6        6       60
  7        9       73
  8       25       75
  9        9       64
 10       25       73
 11       28       77
************************************************************************
BIG-M-VALUES:
M1 = 62, M2 = 336
************************************************************************
